SECTION Graph
Nodes 80
Edges 160
E 1 31 205
E 1 63 195
E 1 76 200
E 2 48 197
E 2 60 197
E 3 19 194
E 3 21 193
E 3 22 201
E 3 31 197
E 3 64 196
E 3 76 198
E 4 20 200
E 4 33 204
E 4 58 193
E 4 65 195
E 4 66 205
E 4 78 200
E 5 6 298
E 5 34 204
E 6 31 197
E 6 49 198
E 6 68 206
E 7 51 196
E 8 27 198
E 8 28 192
E 8 32 207
E 8 68 202
E 9 62 195
E 9 67 197
E 9 69 195
E 9 80 195
E 10 71 200
E 11 28 206
E 11 57 195
E 12 33 201
E 12 39 205
E 12 45 201
E 12 53 192
E 13 26 196
E 13 37 198
E 13 60 200
E 14 56 205
E 15 22 203
E 15 38 193
E 15 45 197
E 15 51 202
E 15 62 201
E 15 64 196
E 16 34 184
E 16 39 196
E 16 48 196
E 16 65 198
E 16 72 203
E 17 33 102
E 17 40 96
E 17 44 97
E 17 72 101
E 18 49 92
E 18 67 95
E 19 26 100
E 19 39 91
E 19 40 91
E 19 50 102
E 19 53 100
E 19 54 104
E 20 37 93
E 20 46 101
E 21 57 100
E 21 59 110
E 22 26 100
E 23 30 109
E 23 63 99
E 23 71 95
E 24 53 105
E 24 54 98
E 25 32 105
E 25 65 95
E 26 40 100
E 26 41 110
E 26 55 101
E 26 56 97
E 27 48 111
E 27 60 106
E 28 53 101
E 28 62 99
E 29 41 91
E 29 71 103
E 30 68 102
E 30 76 102
E 31 51 101
E 31 52 98
E 31 54 92
E 31 77 100
E 31 80 93
E 32 71 94
E 33 42 103
E 34 41 101
E 34 46 102
E 35 37 100
E 35 55 108
E 35 62 98
E 35 71 99
E 36 56 107
E 36 70 99
E 36 74 98
E 38 58 100
E 40 45 97
E 40 60 89
E 40 75 97
E 40 76 96
E 40 79 97
E 41 56 105
E 41 76 105
E 42 80 101
E 43 47 106
E 43 53 88
E 44 51 107
E 44 54 104
E 44 70 97
E 45 47 112
E 45 62 98
E 45 76 96
E 45 77 92
E 46 66 97
E 47 48 101
E 47 49 101
E 47 51 92
E 47 52 107
E 47 63 94
E 47 65 94
E 49 50 93
E 51 52 93
E 51 72 99
E 52 67 98
E 54 65 104
E 55 63 105
E 56 58 106
E 56 73 101
E 57 63 96
E 58 63 98
E 59 60 99
E 59 69 105
E 59 72 102
E 59 75 98
E 60 76 100
E 60 79 104
E 61 74 100
E 61 75 100
E 62 72 98
E 64 69 100
E 65 66 95
E 65 68 106
E 65 73 100
E 65 78 100
E 66 73 95
E 67 73 103
E 68 77 102
E 71 73 100
E 71 77 98
E 76 78 97
END

SECTION Terminals
Terminals 16
T 1
T 2
T 3
T 4
T 5
T 6
T 7
T 8
T 9
T 10
T 11
T 12
T 13
T 14
T 15
T 16
END

SECTION Tree Decomposition
s td 64 17 80
b 1 7 51
b 2 10 71
b 3 14 56
b 4 40 60 79
b 5 2 48 60
b 6 5 6 34
b 7 11 28 57
b 8 18 49 67
b 9 24 53 54
b 10 25 32 65
b 11 29 41 71
b 12 15 38 58
b 13 33 42 80
b 14 43 47 53
b 15 19 49 50
b 16 61 74 75
b 17 36 44 70
b 18 36 74 75
b 19 8 27 48 60
b 20 4 65 76 78
b 21 1 3 6 15 16 33 36 40 47 54 59 62 63 67 76 77
b 22 3 6 15 16 26 28 33 36 40 47 54 59 62 63 67 76 77
b 23 6 15 16 26 28 33 36 40 47 54 59 60 62 63 67 76 77
b 24 6 8 15 16 26 28 33 36 47 54 60 62 63 67 76 77
b 25 6 8 15 16 26 33 36 47 54 60 62 63 65 67 76 77
b 26 6 8 15 16 26 33 36 60 62 63 65 67 71 76 77
b 27 6 15 16 26 33 34 36 60 62 63 65 67 71 76
b 28 15 26 33 34 36 37 60 62 63 65 67 71 76
b 29 15 26 33 34 36 37 56 63 65 67 71 76
b 30 15 33 34 37 56 58 63 65 67 71 76
b 31 4 33 34 37 56 58 65 67 71 76
b 32 4 34 37 56 65 67 71 73
b 33 4 34 37 46 65 73
b 34 4 20 37 46
b 35 4 46 65 66 73
b 36 26 34 41 56 71 76
b 37 13 26 37 60
b 38 26 37 55 62 63 71
b 39 35 37 55 62 71
b 40 6 8 63 65 68 71 76 77
b 41 30 63 68 71 76
b 42 23 30 63 71
b 43 8 32 65 71
b 44 8 16 47 48 60
b 45 3 6 15 16 19 26 28 33 40 47 54 62 67 76 77
b 46 15 16 19 28 33 40 47 53 54 62 76 77
b 47 15 16 19 33 40 45 47 53 62 76 77
b 48 12 16 19 33 45 53
b 49 12 16 19 39
b 50 6 19 47 49 67
b 51 3 28 57 59 63
b 52 3 21 57 59
b 53 3 15 22 26
b 54 1 3 6 15 16 31 33 36 40 47 54 59 62 67 77
b 55 3 9 15 31 33 59 62 67
b 56 3 9 15 59 64
b 57 9 59 64 69
b 58 9 31 33 80
b 59 15 16 31 33 36 40 44 47 54 59 62 67
b 60 15 16 17 31 33 40 44 47 59 62 67
b 61 15 16 17 31 44 47 51 59 62 67
b 62 31 47 51 52 67
b 63 16 17 51 59 62 72
b 64 36 40 59 75
1 61
2 26
3 29
4 23
5 44
6 27
7 51
8 50
9 46
10 43
11 36
12 30
13 58
14 46
15 50
16 18
17 59
18 64
19 44
20 31
21 22
21 54
21 64
22 23
22 45
22 51
22 53
23 24
24 25
24 44
25 26
26 27
26 40
26 43
27 28
28 29
28 37
28 38
29 30
29 36
30 31
31 32
32 33
33 34
33 35
38 39
40 41
41 42
45 46
45 50
46 47
47 48
48 49
51 52
54 55
54 59
55 56
55 58
56 57
59 60
60 61
61 62
61 63
END

EOF
